param K := 10;
param eps := 0.05;

set Ct:= SC1 SC2 SC3 SC4;
set M := MS1_1 MS1_2 MS1_3 MS1_4 MS1_5 MS2_1 MS2_2 MS2_3 MS2_4 MS2_5 MS3_1 MS3_2 MS3_3 MS3_4 MS3_5 MS4_1 MS4_2 MS4_3 MS4_4 MS4_5;
set F := F1 F2 F3 F4 F5 F6 F7 F8 F9 F10;
set C["SC1"] := MS1_1 MS1_2 MS1_3 MS1_4 MS1_5;
set C["SC2"] := MS2_1 MS2_2 MS2_3 MS2_4 MS2_5;
set C["SC3"] := MS3_1 MS3_2 MS3_3 MS3_4 MS3_5;
set C["SC4"] := MS4_1 MS4_2 MS4_3 MS4_4 MS4_5;

param:      lm      Sm      Om      :=
MS1_1       0.075       0.08545016468783251      0.08545016468783251
MS1_2       0.075       4.7085963888773      4.7085963888773
MS1_3       0.075       0.22071987678746208      0.22071987678746208
MS1_4       0.075       4.36306997303707      4.36306997303707
MS1_5       0.075       0.6221635966103349      0.6221635966103349
MS2_1       0.075       6.18734866786803      6.18734866786803
MS2_2       0.075       1.5716685727634045      1.5716685727634045
MS2_3       0.075       0.6924416187550744      0.6924416187550744
MS2_4       0.075       1.013693415270117      1.013693415270117
MS2_5       0.075       0.5348477253433739      0.5348477253433739
MS3_1       0.075       0.15396350631135314      0.15396350631135314
MS3_2       0.075       0.5966877364775214      0.5966877364775214
MS3_3       0.075       3.7135744069969823      3.7135744069969823
MS3_4       0.075       1.0175747423244195      1.0175747423244195
MS3_5       0.075       4.5181996078897235      4.5181996078897235
MS4_1       0.075       0.26081237042521854      0.26081237042521854
MS4_2       0.075       0.9803700212251854      0.9803700212251854
MS4_3       0.075       5.0890950686373335      5.0890950686373335
MS4_4       0.075       3.5109937716787414      3.5109937716787414
MS4_5       0.075       0.1587287680335212      0.1587287680335212
;

param:  lc  :=
SC1   0.075
SC2   0.075
SC3   0.075
SC4   0.075
;

param   P   :=
 F1  1.0
 F2  1.0
 F3  1.0
 F4  1.0
 F5  1.0
 F6  1.0
 F7  1.0
 F8  1.0
 F9  1.0
 F10  1.0
;

param   o:    MS1_1    MS1_2    MS1_3    MS1_4    MS1_5    MS2_1    MS2_2    MS2_3    MS2_4    MS2_5    MS3_1    MS3_2    MS3_3    MS3_4    MS3_5    MS4_1    MS4_2    MS4_3    MS4_4    MS4_5    :=
    MS1_1    0    0    0    0    0    0    0    0    0    0    0    0    0    0    0    0    0    0    0    0
    MS1_2    1    0    0    0    0    0    0    0    0    0    0    0    0    0    0    0    0    0    0    0
    MS1_3    0    1    0    0    0    0    0    0    0    0    0    0    0    0    0    0    0    0    0    0
    MS1_4    0    0    1    0    0    0    0    0    0    0    0    0    0    0    0    0    0    0    0    0
    MS1_5    0    0    0    1    0    0    0    0    0    0    0    0    0    0    0    0    0    0    0    0
    MS2_1    0    0    0    0    0    0    0    0    0    0    0    0    0    0    0    0    0    0    0    0
    MS2_2    0    0    0    0    0    1    0    0    0    0    0    0    0    0    0    0    0    0    0    0
    MS2_3    0    0    0    0    0    0    1    0    0    0    0    0    0    0    0    0    0    0    0    0
    MS2_4    0    0    0    0    0    0    0    1    0    0    0    0    0    0    0    0    0    0    0    0
    MS2_5    0    0    0    0    0    0    0    0    1    0    0    0    0    0    0    0    0    0    0    0
    MS3_1    0    0    0    0    0    0    0    0    0    0    0    0    0    0    0    0    0    0    0    0
    MS3_2    0    0    0    0    0    0    0    0    0    0    1    0    0    0    0    0    0    0    0    0
    MS3_3    0    0    0    0    0    0    0    0    0    0    0    1    0    0    0    0    0    0    0    0
    MS3_4    0    0    0    0    0    0    0    0    0    0    0    0    1    0    0    0    0    0    0    0
    MS3_5    0    0    0    0    0    0    0    0    0    0    0    0    0    1    0    0    0    0    0    0
    MS4_1    0    0    0    0    0    0    0    0    0    0    0    0    0    0    0    0    0    0    0    0
    MS4_2    0    0    0    0    0    0    0    0    0    0    0    0    0    0    0    1    0    0    0    0
    MS4_3    0    0    0    0    0    0    0    0    0    0    0    0    0    0    0    0    1    0    0    0
    MS4_4    0    0    0    0    0    0    0    0    0    0    0    0    0    0    0    0    0    1    0    0
    MS4_5    0    0    0    0    0    0    0    0    0    0    0    0    0    0    0    0    0    0    1    0
;

param   d:    F1    F2    F3    F4    F5    F6    F7    F8    F9    F10    :=
    F1    0.0    1.8584651475512175    1.9078909031559732    2.7177438810964754    2.4474170576783454    2.1946816149218225    1.874340544074965    1.6810704857019547    1.7730159710489308    1.7730159710489308
    F2    1.8584651475512175    0.0    1.6939316315095791    2.9878882684738595    2.142390478791628    2.0990688366203454    1.9587648535339794    1.7730159710489308    1.7664148399851536    1.7664148399851536
    F3    1.9078909031559732    1.6939316315095791    0.0    0.8512255941635285    2.2810377255377645    2.0023464363188244    1.6810704857019547    1.7664148399851536    1.8581384369574239    1.8581384369574239
    F4    2.7177438810964754    2.9878882684738595    0.8512255941635285    0.0    1.6048689159696137    1.874340544074965    1.7730159710489308    1.8581384369574239    2.4888685880209747    2.4888685880209747
    F5    2.4474170576783454    2.142390478791628    2.2810377255377645    1.6048689159696137    0.0    1.9587648535339794    1.7664148399851536    2.4888685880209747    1.8207886520178957    1.8207886520178957
    F6    2.1946816149218225    2.0990688366203454    2.0023464363188244    1.874340544074965    1.9587648535339794    0.0    1.8581384369574239    1.8207886520178957    2.318943933409803    2.318943933409803
    F7    1.874340544074965    1.9587648535339794    1.6810704857019547    1.7730159710489308    1.7664148399851536    1.8581384369574239    0.0    2.318943933409803    1.949125534751549    1.949125534751549
    F8    1.6810704857019547    1.7730159710489308    1.7664148399851536    1.8581384369574239    2.4888685880209747    1.8207886520178957    2.318943933409803    0.0    1.5922132310716983    1.5922132310716983
    F9    1.7730159710489308    1.7664148399851536    1.8581384369574239    2.4888685880209747    1.8207886520178957    2.318943933409803    1.949125534751549    1.5922132310716983    0.0    2.425214979228588
    F10    1.7730159710489308    1.7664148399851536    1.8581384369574239    2.4888685880209747    1.8207886520178957    2.318943933409803    1.949125534751549    1.5922132310716983    2.425214979228588    0.0
;

param   Xt:    F1    F2    F3    F4    F5    F6    F7    F8    F9    F10    :=
    MS1_1    0    0    0    0    0    0    0    0    0    0
    MS1_2    0    0    0    0    0    0    0    0    0    0
    MS1_3    0    0    0    0    0    0    0    0    0    0
    MS1_4    0    0    0    0    0    0    0    0    0    0
    MS1_5    0    0    0    0    0    0    0    0    0    0
    MS2_1    0    0    0    0    0    0    0    0    0    0
    MS2_2    0    0    0    0    0    0    0    0    0    0
    MS2_3    0    0    0    0    0    0    0    0    0    0
    MS2_4    0    0    0    0    0    0    0    0    0    0
    MS2_5    0    0    0    0    0    0    0    0    0    0
    MS3_1    0    0    0    0    0    0    0    0    0    0
    MS3_2    0    0    0    0    0    0    0    0    0    0
    MS3_3    0    0    0    0    0    0    0    0    0    0
    MS3_4    0    0    0    0    0    0    0    0    0    0
    MS3_5    0    0    0    0    0    0    0    0    0    0
    MS4_1    0    0    0    0    0    0    0    0    0    0
    MS4_2    0    0    0    0    0    0    0    0    0    0
    MS4_3    0    0    0    0    0    0    0    0    0    0
    MS4_4    0    0    0    0    0    0    0    0    0    0
    MS4_5    0    0    0    0    0    0    0    0    0    0
;

param   Ot   :=
 F1  0
 F2  0
 F3  0
 F4  0
 F5  0
 F6  0
 F7  0
 F8  0
 F9  0
 F10  0
;
